stock7=[1.0261, 1.0051, 0.981, 0.9675, 1.005, 1.0396, 1.0319, 1.0038, 1.0267, 1.0374, 1.0491, 1.0314, 0.9594, 0.9915, 1.0318, 1.0175, 0.9647, 1.0097, 0.9868, 0.9839];
gold7=[0.912, 0.914, 0.9336, 0.9308, 0.9408, 0.9635, 0.9612, 0.9436, 0.9486, 0.963, 0.9747, 0.9853, 0.9664, 0.9834, 0.9826, 1.0353, 1.0095, 0.9593, 0.9603, 0.9801];
stock30=[1.0619, 1.0619, 1.0619, 1.0619, 1.0827, 1.0827, 1.0827, 1.0827, 1.0483, 1.0483, 1.0483, 1.0483, 0.9429, 0.9429, 0.9429, 0.9429, 0, 0, 0, 0];
gold30=[0.9126, 0.9126, 0.9126, 0.9126, 0.9478, 0.9478, 0.9478, 0.9478, 0.949, 0.949, 0.949, 0.949, 0.978, 0.978, 0.978, 0.978, 0, 0, 0, 0];
bonds30=[1.0054, 1.0054, 1.0054, 1.0054, 1.0054, 1.0054, 1.0054, 1.0054, 1.0054, 1.0054, 1.0054, 1.0054, 1.0054, 1.0054, 1.0054, 1.0054, 0, 0, 0, 0];
